p cnf 23 37
-6 9 1 0
15 -2 -14 0
2 3 -7 0
-18 21 10 0
7 -18 16 0
11 5 -19 0
7 -3 -5 0
6 -15 2 0
-20 8 1 0
9 6 -2 0
-13 -11 18 0
18 -16 -4 0
10 1 -7 0
-19 1 22 0
21 15 -9 0
-13 -23 6 0
-2 -5 -4 0
-6 8 10 0
1 -14 16 0
-3 8 -2 0
18 2 -1 0
4 3 11 0
-3 -1 -11 0
2 20 5 0
3 1 13 0
-5 -1 6 0
-10 20 9 0
22 14 10 0
-4 -1 -12 0
-1 -5 -4 0
10 2 3 0
2 -1 3 0
6 2 -14 0
-4 -2 14 0
-7 -3 -14 0
16 -14 -3 0
15 -2 20 0
